c 
c G(n,p) graph
c graph gen seed     : 7732
c number of vertices : 50
c max number of edges: 1225
c edge probability   : 0.400000
c data structure     : sparse
c
c           Graph Stats
c number of vertices  : 50
c nonisolated vertices: 50
c number of edges     : 487
c edge density        : 0.397551
c max degree          : 28
c avg degree          : 19.48
c min degree          : 14
p col 50 487
e 1 49
e 1 45
e 1 37
e 1 35
e 1 34
e 1 32
e 1 29
e 1 24
e 1 10
e 1 6
e 1 5
e 1 3
e 2 50
e 2 48
e 2 42
e 2 41
e 2 40
e 2 36
e 2 35
e 2 34
e 2 33
e 2 31
e 2 29
e 2 26
e 2 25
e 2 24
e 2 22
e 2 20
e 2 19
e 2 17
e 2 13
e 2 11
e 2 9
e 2 7
e 2 4
e 3 49
e 3 47
e 3 45
e 3 44
e 3 42
e 3 41
e 3 39
e 3 36
e 3 33
e 3 32
e 3 28
e 3 27
e 3 24
e 3 23
e 3 19
e 3 15
e 3 14
e 3 13
e 3 12
e 3 8
e 3 6
e 3 5
e 4 49
e 4 45
e 4 43
e 4 42
e 4 39
e 4 38
e 4 36
e 4 34
e 4 32
e 4 26
e 4 25
e 4 24
e 4 20
e 4 19
e 4 17
e 4 14
e 4 12
e 4 11
e 4 10
e 4 9
e 4 5
e 5 50
e 5 46
e 5 45
e 5 44
e 5 42
e 5 39
e 5 37
e 5 35
e 5 33
e 5 31
e 5 29
e 5 27
e 5 25
e 5 19
e 5 18
e 5 17
e 5 16
e 5 9
e 6 50
e 6 45
e 6 44
e 6 37
e 6 35
e 6 32
e 6 31
e 6 29
e 6 28
e 6 27
e 6 24
e 6 23
e 6 22
e 6 18
e 6 17
e 6 13
e 6 12
e 6 10
e 7 49
e 7 46
e 7 45
e 7 44
e 7 41
e 7 40
e 7 34
e 7 32
e 7 28
e 7 18
e 7 17
e 7 12
e 7 11
e 7 8
e 8 49
e 8 45
e 8 40
e 8 39
e 8 38
e 8 37
e 8 36
e 8 33
e 8 32
e 8 29
e 8 28
e 8 27
e 8 24
e 8 23
e 8 21
e 8 17
e 8 16
e 8 13
e 8 12
e 8 10
e 9 48
e 9 47
e 9 46
e 9 43
e 9 42
e 9 39
e 9 33
e 9 30
e 9 27
e 9 24
e 9 23
e 9 22
e 9 20
e 9 18
e 9 16
e 9 15
e 9 13
e 10 49
e 10 46
e 10 36
e 10 35
e 10 34
e 10 30
e 10 29
e 10 27
e 10 23
e 10 19
e 10 18
e 10 14
e 10 11
e 11 48
e 11 43
e 11 35
e 11 31
e 11 29
e 11 24
e 11 23
e 11 20
e 11 18
e 11 14
e 12 50
e 12 48
e 12 46
e 12 43
e 12 41
e 12 34
e 12 28
e 12 25
e 12 24
e 12 23
e 12 20
e 12 14
e 12 13
e 13 48
e 13 45
e 13 44
e 13 43
e 13 41
e 13 37
e 13 35
e 13 33
e 13 32
e 13 28
e 13 26
e 13 24
e 13 22
e 13 21
e 13 16
e 13 15
e 13 14
e 14 50
e 14 46
e 14 45
e 14 44
e 14 42
e 14 27
e 14 25
e 14 22
e 14 21
e 14 20
e 14 17
e 14 15
e 15 50
e 15 48
e 15 47
e 15 46
e 15 45
e 15 44
e 15 41
e 15 40
e 15 37
e 15 36
e 15 35
e 15 34
e 15 33
e 15 30
e 15 29
e 15 24
e 15 19
e 15 17
e 15 16
e 16 50
e 16 49
e 16 48
e 16 47
e 16 46
e 16 36
e 16 32
e 16 31
e 16 30
e 16 28
e 16 27
e 16 26
e 16 25
e 16 24
e 16 20
e 16 17
e 17 46
e 17 41
e 17 40
e 17 38
e 17 37
e 17 36
e 17 34
e 17 33
e 17 30
e 17 26
e 17 23
e 17 21
e 17 20
e 17 19
e 18 49
e 18 48
e 18 44
e 18 42
e 18 40
e 18 36
e 18 35
e 18 32
e 18 28
e 18 20
e 19 47
e 19 43
e 19 42
e 19 41
e 19 33
e 19 32
e 19 30
e 19 29
e 19 28
e 19 27
e 19 23
e 19 22
e 19 21
e 19 20
e 20 50
e 20 49
e 20 47
e 20 46
e 20 45
e 20 41
e 20 40
e 20 36
e 20 31
e 20 30
e 20 27
e 20 25
e 20 23
e 21 48
e 21 47
e 21 44
e 21 43
e 21 41
e 21 39
e 21 37
e 21 35
e 21 32
e 21 31
e 21 30
e 21 28
e 21 27
e 21 26
e 21 23
e 22 48
e 22 45
e 22 39
e 22 37
e 22 36
e 22 32
e 22 31
e 22 30
e 22 29
e 22 28
e 22 27
e 22 25
e 22 23
e 23 46
e 23 45
e 23 44
e 23 43
e 23 42
e 23 41
e 23 39
e 23 35
e 23 34
e 23 27
e 23 24
e 24 49
e 24 47
e 24 46
e 24 43
e 24 41
e 24 39
e 24 38
e 24 37
e 24 35
e 24 34
e 24 32
e 24 31
e 24 29
e 24 28
e 24 26
e 25 47
e 25 45
e 25 43
e 25 38
e 25 35
e 25 33
e 25 31
e 25 29
e 26 50
e 26 49
e 26 45
e 26 42
e 26 41
e 26 39
e 26 36
e 26 34
e 26 32
e 27 47
e 27 45
e 27 43
e 27 41
e 27 40
e 27 38
e 27 34
e 27 32
e 27 28
e 28 46
e 28 45
e 28 44
e 28 40
e 28 38
e 28 34
e 28 30
e 29 46
e 29 45
e 29 44
e 29 42
e 29 41
e 29 38
e 29 36
e 29 34
e 29 33
e 30 48
e 30 47
e 30 46
e 30 43
e 30 42
e 30 35
e 30 34
e 30 33
e 30 32
e 31 39
e 31 35
e 31 34
e 31 33
e 31 32
e 32 50
e 32 49
e 32 48
e 32 41
e 32 36
e 33 48
e 33 46
e 33 44
e 33 43
e 33 42
e 33 40
e 34 45
e 34 43
e 34 42
e 34 38
e 34 37
e 34 36
e 34 35
e 35 46
e 35 43
e 35 40
e 35 36
e 36 45
e 36 41
e 36 39
e 36 38
e 37 49
e 37 48
e 37 47
e 37 46
e 37 44
e 37 43
e 37 42
e 37 38
e 38 46
e 38 44
e 38 42
e 39 48
e 39 46
e 39 43
e 40 49
e 40 48
e 40 47
e 40 46
e 40 44
e 40 42
e 41 50
e 41 42
e 42 45
e 43 49
e 44 50
e 44 49
e 44 48
e 44 46
e 44 45
e 45 50
e 45 49
e 45 47
e 46 50
e 46 49
e 47 48
